column=9;
row=9;
Board=[|7,1,0,8,4,3,2,0,0|6,0,0,0,0,0,0,0,9|2,6,0,9,1,0,4,5,3|0,0,0,0,6,0,1,2,0|1,0,0,3,0,6,0,0,0|9,0,8,0,3,0,7,4,6|3,0,9,0,8,0,6,0,0|5,0,1,0,9,2,0,0,0|0,0,4,6,2,5,0,0,0|];
horizontal=[|2,0,0,2,0,2,0,2|2,0,0,0,0,0,0,1|1,1,0,2,1,0,0,0|0,0,0,2,0,0,1,0|0,0,1,0,2,0,0,0|0,1,0,1,2,0,2,1|0,1,0,1,2,0,2,1|0,2,0,1,0,0,1,0|0,2,0,0,1,0,0,0|];
vertical=[|2,1,0,2,1,1,0,2,1|0,1,1,0,0,0,0,0,0|1,2,0,2,0,0,2,0,0|2,0,0,2,0,0,0,0,0|1,0,0,0,0,0,0,0,0|2,2,0,1,1,1,2,2,2|0,0,0,2,1,0,0,1,1|0,2,0,1,2,1,0,0,0|];
